c Optimization.jl
c  Problem  1 input parameters
c  ---------------------------
c   Number of nodes:            91
c   Source nodes:               8
c   Sink nodes:                 5
c   Number of arcs:             1024
c   Minimum arc cost:           1.0
c   Maximum arc cost:           96.0
c   Total supply:               476.0
c   Minimum arc capacity:       27.0
c   Maximum arc capacity:       158.0
c
c  *** Minimum cost flow ***
c
p min 91 1024
n 1 38.0
n 2 11.0
n 3 71.0
n 4 69.0
n 5 61.0
n 6 49.0
n 7 128.0
n 8 49.0
n 87 -178.0
n 88 -97.0
n 89 -85.0
n 90 -20.0
n 91 -96.0
a 1 72 0.0 38.0 28.0
a 1 38 0.0 45.0 93.0
a 1 46 0.0 41.0 67.0
a 1 11 0.0 140.0 94.0
a 20 91 0.0 38.0 31.0
a 20 70 0.0 116.0 18.0
a 20 22 0.0 137.0 79.0
a 20 74 0.0 48.0 12.0
a 20 41 0.0 117.0 87.0
a 20 83 0.0 124.0 73.0
a 20 49 0.0 100.0 81.0
a 20 52 0.0 129.0 44.0
a 20 26 0.0 39.0 19.0
a 20 30 0.0 141.0 37.0
a 20 79 0.0 82.0 72.0
a 20 43 0.0 76.0 34.0
a 20 34 0.0 79.0 22.0
a 20 86 0.0 95.0 68.0
a 20 35 0.0 75.0 72.0
a 20 36 0.0 64.0 83.0
a 25 42 0.0 38.0 21.0
a 25 84 0.0 109.0 96.0
a 25 45 0.0 82.0 56.0
a 25 39 0.0 107.0 1.0
a 25 83 0.0 149.0 32.0
a 25 29 0.0 128.0 67.0
a 25 17 0.0 158.0 17.0
a 25 79 0.0 101.0 44.0
a 25 27 0.0 119.0 69.0
a 25 12 0.0 50.0 69.0
a 25 89 0.0 88.0 42.0
a 25 66 0.0 120.0 60.0
a 25 9 0.0 70.0 58.0
a 25 55 0.0 110.0 33.0
a 25 62 0.0 145.0 82.0
a 36 20 0.0 38.0 18.0
a 36 89 0.0 38.0 67.0
a 36 38 0.0 72.0 22.0
a 36 31 0.0 47.0 33.0
a 42 36 0.0 38.0 74.0
a 42 57 0.0 40.0 92.0
a 42 17 0.0 147.0 71.0
a 42 61 0.0 140.0 86.0
a 42 20 0.0 48.0 17.0
a 42 41 0.0 135.0 64.0
a 42 62 0.0 99.0 94.0
a 42 12 0.0 61.0 49.0
a 42 69 0.0 71.0 51.0
a 42 74 0.0 71.0 51.0
a 46 86 0.0 38.0 30.0
a 46 72 0.0 27.0 65.0
a 46 51 0.0 131.0 81.0
a 46 14 0.0 151.0 60.0
a 46 59 0.0 100.0 76.0
a 46 16 0.0 118.0 93.0
a 46 24 0.0 60.0 65.0
a 46 47 0.0 90.0 76.0
a 46 85 0.0 104.0 9.0
a 46 64 0.0 53.0 77.0
a 46 91 0.0 126.0 3.0
a 46 38 0.0 128.0 72.0
a 46 15 0.0 113.0 62.0
a 46 22 0.0 48.0 7.0
a 72 73 0.0 38.0 39.0
a 72 61 0.0 135.0 77.0
a 72 54 0.0 94.0 17.0
a 72 62 0.0 108.0 77.0
a 72 71 0.0 86.0 68.0
a 72 78 0.0 114.0 55.0
a 72 77 0.0 53.0 18.0
a 73 46 0.0 38.0 23.0
a 73 19 0.0 29.0 19.0
a 73 53 0.0 151.0 47.0
a 73 80 0.0 153.0 45.0
a 73 41 0.0 58.0 52.0
a 73 10 0.0 108.0 29.0
a 73 51 0.0 79.0 12.0
a 73 61 0.0 56.0 78.0
a 73 62 0.0 47.0 15.0
a 73 39 0.0 91.0 13.0
a 73 85 0.0 79.0 36.0
a 73 54 0.0 107.0 88.0
a 73 28 0.0 41.0 12.0
a 73 34 0.0 107.0 77.0
a 73 35 0.0 38.0 86.0
a 73 63 0.0 54.0 55.0
a 73 58 0.0 78.0 91.0
a 73 87 0.0 89.0 92.0
a 86 25 0.0 38.0 62.0
a 86 20 0.0 37.0 35.0
a 86 81 0.0 140.0 26.0
a 86 76 0.0 137.0 74.0
a 2 54 0.0 27.0 32.0
a 2 27 0.0 37.0 72.0
a 2 67 0.0 40.0 5.0
a 2 25 0.0 97.0 18.0
a 2 62 0.0 39.0 52.0
a 2 19 0.0 139.0 78.0
a 2 14 0.0 41.0 26.0
a 2 80 0.0 63.0 85.0
a 2 87 0.0 112.0 50.0
a 2 30 0.0 127.0 28.0
a 2 22 0.0 124.0 10.0
a 2 17 0.0 131.0 82.0
a 2 60 0.0 75.0 85.0
a 2 84 0.0 57.0 88.0
a 2 20 0.0 43.0 68.0
a 2 15 0.0 146.0 10.0
a 2 34 0.0 27.0 47.0
a 11 79 0.0 27.0 37.0
a 11 9 0.0 29.0 16.0
a 11 88 0.0 80.0 34.0
a 11 81 0.0 95.0 88.0
a 11 65 0.0 151.0 56.0
a 11 44 0.0 45.0 61.0
a 11 72 0.0 80.0 77.0
a 11 26 0.0 74.0 33.0
a 11 76 0.0 33.0 8.0
a 11 86 0.0 106.0 59.0
a 11 80 0.0 63.0 92.0
a 22 55 0.0 27.0 56.0
a 22 51 0.0 70.0 11.0
a 22 64 0.0 49.0 37.0
a 22 71 0.0 148.0 4.0
a 22 14 0.0 156.0 10.0
a 22 50 0.0 86.0 59.0
a 22 39 0.0 128.0 44.0
a 22 75 0.0 142.0 34.0
a 22 9 0.0 153.0 64.0
a 22 42 0.0 157.0 38.0
a 22 62 0.0 41.0 66.0
a 22 58 0.0 44.0 50.0
a 22 45 0.0 117.0 22.0
a 22 57 0.0 106.0 96.0
a 22 38 0.0 48.0 83.0
a 22 89 0.0 97.0 85.0
a 22 79 0.0 128.0 52.0
a 22 40 0.0 93.0 61.0
a 22 10 0.0 27.0 21.0
a 22 90 0.0 77.0 47.0
a 22 19 0.0 106.0 22.0
a 22 78 0.0 103.0 30.0
a 32 22 0.0 27.0 82.0
a 32 88 0.0 27.0 41.0
a 32 33 0.0 30.0 92.0
a 32 55 0.0 69.0 5.0
a 32 79 0.0 57.0 14.0
a 32 11 0.0 101.0 79.0
a 32 47 0.0 34.0 40.0
a 32 46 0.0 34.0 73.0
a 32 80 0.0 142.0 23.0
a 32 26 0.0 69.0 24.0
a 32 81 0.0 72.0 66.0
a 32 76 0.0 91.0 87.0
a 32 15 0.0 42.0 41.0
a 32 71 0.0 64.0 39.0
a 32 45 0.0 144.0 72.0
a 32 56 0.0 140.0 6.0
a 45 50 0.0 27.0 29.0
a 45 34 0.0 137.0 61.0
a 45 83 0.0 129.0 3.0
a 45 72 0.0 118.0 87.0
a 45 76 0.0 99.0 10.0
a 45 90 0.0 121.0 3.0
a 45 77 0.0 103.0 28.0
a 45 18 0.0 120.0 82.0
a 45 52 0.0 109.0 75.0
a 45 39 0.0 50.0 71.0
a 45 88 0.0 75.0 60.0
a 45 14 0.0 55.0 23.0
a 45 67 0.0 115.0 30.0
a 45 24 0.0 30.0 61.0
a 45 55 0.0 108.0 10.0
a 45 31 0.0 131.0 48.0
a 50 32 0.0 27.0 51.0
a 50 91 0.0 38.0 7.0
a 50 55 0.0 75.0 33.0
a 54 11 0.0 27.0 50.0
a 54 75 0.0 115.0 34.0
a 54 21 0.0 131.0 31.0
a 54 77 0.0 135.0 92.0
a 54 87 0.0 84.0 30.0
a 54 64 0.0 102.0 41.0
a 54 40 0.0 154.0 51.0
a 54 31 0.0 131.0 32.0
a 54 24 0.0 38.0 14.0
a 54 15 0.0 77.0 74.0
a 55 70 0.0 27.0 66.0
a 55 54 0.0 38.0 31.0
a 55 29 0.0 52.0 16.0
a 55 49 0.0 47.0 72.0
a 55 82 0.0 64.0 28.0
a 55 60 0.0 149.0 63.0
a 55 78 0.0 45.0 53.0
a 55 85 0.0 105.0 13.0
a 55 50 0.0 98.0 68.0
a 55 91 0.0 153.0 49.0
a 55 15 0.0 97.0 66.0
a 55 42 0.0 100.0 92.0
a 55 30 0.0 152.0 95.0
a 70 91 0.0 27.0 52.0
a 70 40 0.0 135.0 74.0
a 70 68 0.0 99.0 74.0
a 70 29 0.0 138.0 26.0
a 70 26 0.0 148.0 26.0
a 70 24 0.0 49.0 14.0
a 70 21 0.0 147.0 1.0
a 70 89 0.0 47.0 76.0
a 70 41 0.0 44.0 60.0
a 70 61 0.0 139.0 31.0
a 70 52 0.0 62.0 35.0
a 70 77 0.0 71.0 86.0
a 70 39 0.0 36.0 43.0
a 76 45 0.0 27.0 73.0
a 76 17 0.0 135.0 73.0
a 76 52 0.0 45.0 50.0
a 76 56 0.0 122.0 34.0
a 76 48 0.0 136.0 85.0
a 76 89 0.0 84.0 36.0
a 76 69 0.0 30.0 82.0
a 76 87 0.0 74.0 46.0
a 76 14 0.0 126.0 84.0
a 79 76 0.0 27.0 24.0
a 79 40 0.0 75.0 33.0
a 79 55 0.0 141.0 64.0
a 79 63 0.0 32.0 52.0
a 79 24 0.0 31.0 50.0
a 79 38 0.0 84.0 88.0
a 79 72 0.0 45.0 95.0
a 79 91 0.0 110.0 37.0
a 79 71 0.0 59.0 72.0
a 3 37 0.0 71.0 34.0
a 3 86 0.0 124.0 45.0
a 3 48 0.0 134.0 46.0
a 3 29 0.0 90.0 82.0
a 3 35 0.0 36.0 85.0
a 3 59 0.0 138.0 78.0
a 3 9 0.0 158.0 45.0
a 3 32 0.0 122.0 51.0
a 10 88 0.0 71.0 29.0
a 10 17 0.0 149.0 50.0
a 10 41 0.0 136.0 1.0
a 10 56 0.0 72.0 17.0
a 10 65 0.0 63.0 45.0
a 10 25 0.0 122.0 50.0
a 10 82 0.0 156.0 41.0
a 10 87 0.0 49.0 96.0
a 10 28 0.0 118.0 37.0
a 10 57 0.0 111.0 75.0
a 10 67 0.0 158.0 57.0
a 10 58 0.0 31.0 35.0
a 10 91 0.0 127.0 65.0
a 10 46 0.0 41.0 11.0
a 10 53 0.0 35.0 57.0
a 10 61 0.0 110.0 43.0
a 10 49 0.0 38.0 7.0
a 10 62 0.0 105.0 40.0
a 10 9 0.0 55.0 50.0
a 10 60 0.0 41.0 78.0
a 10 74 0.0 73.0 90.0
a 10 11 0.0 98.0 81.0
a 14 87 0.0 71.0 44.0
a 14 51 0.0 71.0 39.0
a 14 29 0.0 76.0 71.0
a 14 83 0.0 130.0 68.0
a 14 35 0.0 64.0 17.0
a 14 64 0.0 85.0 27.0
a 14 10 0.0 134.0 19.0
a 14 91 0.0 98.0 42.0
a 14 28 0.0 69.0 96.0
a 14 72 0.0 31.0 6.0
a 14 71 0.0 43.0 64.0
a 14 30 0.0 122.0 34.0
a 14 90 0.0 33.0 26.0
a 14 84 0.0 86.0 45.0
a 14 38 0.0 102.0 40.0
a 14 57 0.0 137.0 56.0
a 14 54 0.0 86.0 6.0
a 14 68 0.0 108.0 29.0
a 18 78 0.0 71.0 87.0
a 18 55 0.0 33.0 67.0
a 18 12 0.0 58.0 54.0
a 18 59 0.0 37.0 51.0
a 18 69 0.0 152.0 95.0
a 18 36 0.0 110.0 5.0
a 18 29 0.0 33.0 39.0
a 18 54 0.0 88.0 72.0
a 18 83 0.0 57.0 62.0
a 18 33 0.0 45.0 78.0
a 18 86 0.0 55.0 92.0
a 18 51 0.0 42.0 80.0
a 18 27 0.0 32.0 14.0
a 18 31 0.0 135.0 13.0
a 18 71 0.0 135.0 89.0
a 18 81 0.0 110.0 70.0
a 18 53 0.0 138.0 51.0
a 18 48 0.0 48.0 68.0
a 18 45 0.0 77.0 17.0
a 18 90 0.0 40.0 6.0
a 18 40 0.0 112.0 26.0
a 21 10 0.0 71.0 89.0
a 21 71 0.0 121.0 91.0
a 21 82 0.0 92.0 41.0
a 21 83 0.0 49.0 29.0
a 21 52 0.0 133.0 20.0
a 21 28 0.0 51.0 53.0
a 21 54 0.0 147.0 60.0
a 21 68 0.0 38.0 28.0
a 21 85 0.0 66.0 23.0
a 21 60 0.0 156.0 41.0
a 21 26 0.0 123.0 9.0
a 37 18 0.0 71.0 95.0
a 37 72 0.0 58.0 80.0
a 37 67 0.0 29.0 94.0
a 37 26 0.0 139.0 77.0
a 37 15 0.0 64.0 55.0
a 37 20 0.0 37.0 1.0
a 37 39 0.0 95.0 96.0
a 37 74 0.0 78.0 20.0
a 37 85 0.0 142.0 94.0
a 37 46 0.0 56.0 18.0
a 37 16 0.0 150.0 9.0
a 37 69 0.0 28.0 79.0
a 37 73 0.0 31.0 6.0
a 37 63 0.0 60.0 67.0
a 37 24 0.0 131.0 89.0
a 37 52 0.0 128.0 81.0
a 37 47 0.0 109.0 90.0
a 37 31 0.0 97.0 55.0
a 37 59 0.0 67.0 25.0
a 37 75 0.0 66.0 75.0
a 51 21 0.0 71.0 40.0
a 51 49 0.0 61.0 70.0
a 51 9 0.0 107.0 49.0
a 51 34 0.0 124.0 96.0
a 51 11 0.0 60.0 26.0
a 51 86 0.0 42.0 14.0
a 51 76 0.0 68.0 82.0
a 51 20 0.0 47.0 68.0
a 51 36 0.0 108.0 81.0
a 51 14 0.0 90.0 2.0
a 51 73 0.0 85.0 83.0
a 51 18 0.0 72.0 8.0
a 51 87 0.0 31.0 36.0
a 51 78 0.0 121.0 19.0
a 51 81 0.0 63.0 96.0
a 51 85 0.0 29.0 64.0
a 51 84 0.0 141.0 16.0
a 51 61 0.0 41.0 94.0
a 51 15 0.0 136.0 17.0
a 78 14 0.0 71.0 73.0
a 78 30 0.0 110.0 37.0
a 78 13 0.0 109.0 9.0
a 78 28 0.0 152.0 49.0
a 78 38 0.0 40.0 28.0
a 78 65 0.0 101.0 42.0
a 78 69 0.0 149.0 19.0
a 78 23 0.0 132.0 8.0
a 78 71 0.0 70.0 92.0
a 4 12 0.0 69.0 35.0
a 4 24 0.0 145.0 58.0
a 4 51 0.0 144.0 88.0
a 4 81 0.0 103.0 28.0
a 4 41 0.0 69.0 13.0
a 4 20 0.0 71.0 28.0
a 4 76 0.0 39.0 96.0
a 4 32 0.0 76.0 9.0
a 4 79 0.0 70.0 30.0
a 4 77 0.0 109.0 23.0
a 12 35 0.0 69.0 46.0
a 12 33 0.0 97.0 16.0
a 27 58 0.0 69.0 36.0
a 27 19 0.0 74.0 43.0
a 27 42 0.0 156.0 52.0
a 27 32 0.0 45.0 35.0
a 27 86 0.0 156.0 70.0
a 27 25 0.0 102.0 93.0
a 27 61 0.0 131.0 27.0
a 27 40 0.0 61.0 30.0
a 27 62 0.0 119.0 62.0
a 27 31 0.0 114.0 27.0
a 27 36 0.0 55.0 87.0
a 27 79 0.0 125.0 59.0
a 27 80 0.0 41.0 16.0
a 27 77 0.0 147.0 48.0
a 34 88 0.0 69.0 95.0
a 34 27 0.0 69.0 16.0
a 34 25 0.0 132.0 95.0
a 34 80 0.0 131.0 83.0
a 34 48 0.0 151.0 32.0
a 34 23 0.0 74.0 42.0
a 34 11 0.0 72.0 58.0
a 34 73 0.0 73.0 89.0
a 34 70 0.0 131.0 45.0
a 34 17 0.0 74.0 70.0
a 34 35 0.0 71.0 82.0
a 34 65 0.0 99.0 29.0
a 34 60 0.0 104.0 76.0
a 34 67 0.0 41.0 70.0
a 34 69 0.0 136.0 3.0
a 34 79 0.0 93.0 37.0
a 34 66 0.0 33.0 73.0
a 34 75 0.0 94.0 74.0
a 34 54 0.0 149.0 84.0
a 35 49 0.0 69.0 1.0
a 35 27 0.0 111.0 57.0
a 35 71 0.0 99.0 5.0
a 35 26 0.0 74.0 17.0
a 35 80 0.0 140.0 18.0
a 35 42 0.0 47.0 48.0
a 35 76 0.0 151.0 8.0
a 35 12 0.0 89.0 73.0
a 35 48 0.0 89.0 45.0
a 35 61 0.0 109.0 28.0
a 35 79 0.0 66.0 28.0
a 35 82 0.0 157.0 42.0
a 35 87 0.0 77.0 62.0
a 39 44 0.0 69.0 57.0
a 39 21 0.0 87.0 82.0
a 39 72 0.0 36.0 25.0
a 39 80 0.0 103.0 64.0
a 39 12 0.0 101.0 29.0
a 39 61 0.0 149.0 2.0
a 39 16 0.0 145.0 74.0
a 39 55 0.0 106.0 29.0
a 39 45 0.0 115.0 31.0
a 39 59 0.0 107.0 1.0
a 39 10 0.0 110.0 47.0
a 39 51 0.0 109.0 70.0
a 39 73 0.0 144.0 25.0
a 39 52 0.0 155.0 3.0
a 39 88 0.0 112.0 19.0
a 39 79 0.0 92.0 31.0
a 39 15 0.0 120.0 83.0
a 39 42 0.0 89.0 20.0
a 41 34 0.0 69.0 44.0
a 41 24 0.0 70.0 25.0
a 41 70 0.0 98.0 52.0
a 44 89 0.0 69.0 80.0
a 44 41 0.0 86.0 58.0
a 44 58 0.0 145.0 17.0
a 44 32 0.0 110.0 35.0
a 44 53 0.0 96.0 34.0
a 44 40 0.0 93.0 29.0
a 44 37 0.0 44.0 81.0
a 44 65 0.0 111.0 1.0
a 44 17 0.0 57.0 24.0
a 44 60 0.0 114.0 53.0
a 44 73 0.0 66.0 15.0
a 44 29 0.0 103.0 46.0
a 44 27 0.0 129.0 38.0
a 49 41 0.0 69.0 24.0
a 49 74 0.0 155.0 35.0
a 49 12 0.0 83.0 44.0
a 49 85 0.0 27.0 50.0
a 49 70 0.0 29.0 51.0
a 49 48 0.0 51.0 63.0
a 49 22 0.0 37.0 39.0
a 49 67 0.0 121.0 8.0
a 49 63 0.0 64.0 20.0
a 58 39 0.0 69.0 33.0
a 58 11 0.0 31.0 94.0
a 58 71 0.0 44.0 7.0
a 58 44 0.0 88.0 56.0
a 58 90 0.0 54.0 61.0
a 58 81 0.0 106.0 48.0
a 58 26 0.0 120.0 7.0
a 5 33 0.0 61.0 31.0
a 5 54 0.0 34.0 4.0
a 5 78 0.0 106.0 7.0
a 5 37 0.0 41.0 66.0
a 5 73 0.0 37.0 1.0
a 5 81 0.0 50.0 24.0
a 5 28 0.0 118.0 12.0
a 5 60 0.0 142.0 16.0
a 5 24 0.0 138.0 44.0
a 5 87 0.0 102.0 33.0
a 5 68 0.0 95.0 77.0
a 5 83 0.0 46.0 13.0
a 5 16 0.0 143.0 87.0
a 5 64 0.0 99.0 90.0
a 5 45 0.0 84.0 91.0
a 5 61 0.0 135.0 83.0
a 5 12 0.0 133.0 49.0
a 5 82 0.0 84.0 12.0
a 31 43 0.0 61.0 19.0
a 31 37 0.0 135.0 5.0
a 31 59 0.0 34.0 72.0
a 31 64 0.0 86.0 62.0
a 31 52 0.0 73.0 57.0
a 31 56 0.0 116.0 74.0
a 31 58 0.0 94.0 92.0
a 31 25 0.0 53.0 55.0
a 31 14 0.0 68.0 49.0
a 31 22 0.0 46.0 12.0
a 31 77 0.0 52.0 8.0
a 31 50 0.0 127.0 64.0
a 31 90 0.0 119.0 36.0
a 31 60 0.0 30.0 29.0
a 31 38 0.0 51.0 16.0
a 31 30 0.0 158.0 52.0
a 31 19 0.0 114.0 45.0
a 33 71 0.0 61.0 66.0
a 33 23 0.0 138.0 60.0
a 33 12 0.0 151.0 6.0
a 33 13 0.0 84.0 73.0
a 33 39 0.0 138.0 58.0
a 33 79 0.0 155.0 39.0
a 33 64 0.0 68.0 85.0
a 33 24 0.0 82.0 50.0
a 33 55 0.0 111.0 7.0
a 33 35 0.0 84.0 1.0
a 33 84 0.0 70.0 48.0
a 33 28 0.0 31.0 17.0
a 33 76 0.0 134.0 30.0
a 33 60 0.0 84.0 80.0
a 33 57 0.0 90.0 83.0
a 33 15 0.0 65.0 29.0
a 43 67 0.0 61.0 13.0
a 43 91 0.0 27.0 62.0
a 43 89 0.0 99.0 39.0
a 47 87 0.0 61.0 74.0
a 47 31 0.0 33.0 83.0
a 47 51 0.0 81.0 40.0
a 47 36 0.0 127.0 45.0
a 47 12 0.0 80.0 66.0
a 53 47 0.0 61.0 75.0
a 53 37 0.0 100.0 35.0
a 53 19 0.0 37.0 95.0
a 53 13 0.0 93.0 42.0
a 53 91 0.0 135.0 28.0
a 53 57 0.0 146.0 68.0
a 53 77 0.0 63.0 10.0
a 53 64 0.0 158.0 86.0
a 53 66 0.0 47.0 25.0
a 53 71 0.0 111.0 10.0
a 53 10 0.0 106.0 68.0
a 53 22 0.0 31.0 1.0
a 53 50 0.0 51.0 95.0
a 53 60 0.0 89.0 27.0
a 53 36 0.0 98.0 59.0
a 53 38 0.0 144.0 71.0
a 53 61 0.0 105.0 10.0
a 53 56 0.0 84.0 65.0
a 53 12 0.0 137.0 31.0
a 53 80 0.0 36.0 42.0
a 53 46 0.0 93.0 10.0
a 59 61 0.0 61.0 58.0
a 59 75 0.0 42.0 66.0
a 59 68 0.0 56.0 41.0
a 59 15 0.0 41.0 2.0
a 59 37 0.0 63.0 58.0
a 59 76 0.0 155.0 56.0
a 59 51 0.0 100.0 55.0
a 59 9 0.0 106.0 46.0
a 59 70 0.0 114.0 51.0
a 61 91 0.0 61.0 90.0
a 61 31 0.0 61.0 14.0
a 61 65 0.0 35.0 55.0
a 61 85 0.0 32.0 53.0
a 61 37 0.0 73.0 21.0
a 61 11 0.0 112.0 9.0
a 61 52 0.0 67.0 54.0
a 61 60 0.0 99.0 4.0
a 65 77 0.0 61.0 24.0
a 65 23 0.0 140.0 66.0
a 65 68 0.0 69.0 86.0
a 65 30 0.0 74.0 11.0
a 65 74 0.0 92.0 3.0
a 65 75 0.0 129.0 30.0
a 65 16 0.0 114.0 83.0
a 65 86 0.0 156.0 74.0
a 65 36 0.0 157.0 78.0
a 65 52 0.0 156.0 34.0
a 65 71 0.0 95.0 36.0
a 65 55 0.0 111.0 5.0
a 65 84 0.0 151.0 41.0
a 67 68 0.0 61.0 18.0
a 67 64 0.0 109.0 88.0
a 67 27 0.0 115.0 77.0
a 67 81 0.0 31.0 11.0
a 67 47 0.0 28.0 16.0
a 67 39 0.0 91.0 41.0
a 67 44 0.0 146.0 82.0
a 67 11 0.0 116.0 14.0
a 67 76 0.0 152.0 38.0
a 67 88 0.0 72.0 57.0
a 67 37 0.0 93.0 20.0
a 67 56 0.0 81.0 38.0
a 67 77 0.0 68.0 96.0
a 67 21 0.0 56.0 72.0
a 67 26 0.0 123.0 91.0
a 67 23 0.0 116.0 23.0
a 67 48 0.0 83.0 86.0
a 68 53 0.0 61.0 30.0
a 68 16 0.0 131.0 81.0
a 68 35 0.0 52.0 18.0
a 68 38 0.0 27.0 91.0
a 68 84 0.0 60.0 44.0
a 68 64 0.0 64.0 83.0
a 68 11 0.0 122.0 11.0
a 68 76 0.0 114.0 96.0
a 68 66 0.0 85.0 41.0
a 68 46 0.0 44.0 21.0
a 68 63 0.0 126.0 64.0
a 68 48 0.0 45.0 4.0
a 68 67 0.0 47.0 88.0
a 68 54 0.0 114.0 2.0
a 68 36 0.0 67.0 88.0
a 68 65 0.0 157.0 9.0
a 71 80 0.0 61.0 6.0
a 71 62 0.0 81.0 33.0
a 71 22 0.0 121.0 85.0
a 71 39 0.0 48.0 20.0
a 71 29 0.0 114.0 23.0
a 71 34 0.0 111.0 17.0
a 71 65 0.0 39.0 81.0
a 71 77 0.0 136.0 6.0
a 71 59 0.0 157.0 63.0
a 71 42 0.0 36.0 28.0
a 71 33 0.0 48.0 9.0
a 71 68 0.0 54.0 48.0
a 71 44 0.0 157.0 1.0
a 71 15 0.0 135.0 10.0
a 71 27 0.0 130.0 82.0
a 71 11 0.0 76.0 75.0
a 71 14 0.0 36.0 19.0
a 71 67 0.0 76.0 66.0
a 71 90 0.0 134.0 19.0
a 77 59 0.0 61.0 42.0
a 77 17 0.0 141.0 15.0
a 77 23 0.0 147.0 66.0
a 77 52 0.0 64.0 82.0
a 77 12 0.0 101.0 62.0
a 77 68 0.0 122.0 37.0
a 77 58 0.0 148.0 72.0
a 77 37 0.0 100.0 3.0
a 77 9 0.0 92.0 93.0
a 77 41 0.0 143.0 61.0
a 77 38 0.0 80.0 55.0
a 77 14 0.0 86.0 46.0
a 77 61 0.0 107.0 45.0
a 77 88 0.0 64.0 88.0
a 77 55 0.0 137.0 89.0
a 77 22 0.0 40.0 35.0
a 80 65 0.0 61.0 94.0
a 80 43 0.0 132.0 88.0
a 80 66 0.0 67.0 64.0
a 80 30 0.0 67.0 94.0
a 80 41 0.0 94.0 85.0
a 80 10 0.0 76.0 75.0
a 80 62 0.0 153.0 81.0
a 80 54 0.0 95.0 76.0
a 80 17 0.0 101.0 4.0
a 80 15 0.0 95.0 24.0
a 80 45 0.0 100.0 88.0
a 80 60 0.0 64.0 89.0
a 80 35 0.0 115.0 96.0
a 80 40 0.0 91.0 84.0
a 80 55 0.0 79.0 52.0
a 80 27 0.0 68.0 84.0
a 80 82 0.0 52.0 46.0
a 80 13 0.0 105.0 3.0
a 80 61 0.0 139.0 75.0
a 6 82 0.0 49.0 8.0
a 6 37 0.0 97.0 43.0
a 6 25 0.0 43.0 96.0
a 6 57 0.0 152.0 51.0
a 6 87 0.0 109.0 96.0
a 6 12 0.0 124.0 28.0
a 6 22 0.0 52.0 18.0
a 6 32 0.0 65.0 42.0
a 6 76 0.0 154.0 60.0
a 6 28 0.0 109.0 20.0
a 6 44 0.0 142.0 96.0
a 6 78 0.0 89.0 78.0
a 6 68 0.0 44.0 12.0
a 6 29 0.0 52.0 42.0
a 6 24 0.0 85.0 24.0
a 6 58 0.0 145.0 94.0
a 6 47 0.0 106.0 88.0
a 6 45 0.0 101.0 21.0
a 13 75 0.0 49.0 30.0
a 13 16 0.0 47.0 20.0
a 13 36 0.0 40.0 41.0
a 13 47 0.0 70.0 30.0
a 13 31 0.0 156.0 80.0
a 13 54 0.0 88.0 25.0
a 13 86 0.0 146.0 29.0
a 13 64 0.0 88.0 47.0
a 13 83 0.0 79.0 39.0
a 13 78 0.0 101.0 90.0
a 13 39 0.0 76.0 61.0
a 16 88 0.0 49.0 14.0
a 16 89 0.0 49.0 54.0
a 16 21 0.0 35.0 50.0
a 16 63 0.0 39.0 37.0
a 16 12 0.0 134.0 11.0
a 16 62 0.0 82.0 43.0
a 16 75 0.0 106.0 74.0
a 16 85 0.0 123.0 30.0
a 16 14 0.0 144.0 52.0
a 16 64 0.0 50.0 82.0
a 16 29 0.0 137.0 58.0
a 16 81 0.0 75.0 53.0
a 16 52 0.0 41.0 22.0
a 16 72 0.0 83.0 86.0
a 16 69 0.0 130.0 15.0
a 16 36 0.0 63.0 28.0
a 16 46 0.0 133.0 28.0
a 24 62 0.0 49.0 29.0
a 24 32 0.0 83.0 2.0
a 24 67 0.0 146.0 61.0
a 24 39 0.0 135.0 66.0
a 24 34 0.0 156.0 94.0
a 24 55 0.0 142.0 76.0
a 24 9 0.0 78.0 74.0
a 24 47 0.0 133.0 46.0
a 24 91 0.0 80.0 39.0
a 24 80 0.0 40.0 48.0
a 24 60 0.0 124.0 7.0
a 24 89 0.0 102.0 44.0
a 24 27 0.0 69.0 87.0
a 24 54 0.0 51.0 57.0
a 24 64 0.0 133.0 73.0
a 24 49 0.0 28.0 21.0
a 24 83 0.0 30.0 7.0
a 29 16 0.0 49.0 2.0
a 29 54 0.0 132.0 79.0
a 38 24 0.0 49.0 74.0
a 38 46 0.0 133.0 68.0
a 38 66 0.0 104.0 15.0
a 38 75 0.0 73.0 79.0
a 38 72 0.0 49.0 48.0
a 38 56 0.0 136.0 49.0
a 38 74 0.0 116.0 74.0
a 38 15 0.0 133.0 18.0
a 62 13 0.0 49.0 8.0
a 62 49 0.0 139.0 39.0
a 62 77 0.0 64.0 36.0
a 62 81 0.0 85.0 19.0
a 62 25 0.0 75.0 58.0
a 62 48 0.0 65.0 2.0
a 62 80 0.0 36.0 78.0
a 62 38 0.0 90.0 92.0
a 62 43 0.0 95.0 34.0
a 62 79 0.0 60.0 54.0
a 62 57 0.0 135.0 15.0
a 75 29 0.0 49.0 93.0
a 75 79 0.0 87.0 40.0
a 75 61 0.0 84.0 6.0
a 75 38 0.0 128.0 9.0
a 75 58 0.0 95.0 27.0
a 75 69 0.0 34.0 45.0
a 75 53 0.0 112.0 86.0
a 75 91 0.0 40.0 88.0
a 75 18 0.0 109.0 84.0
a 75 37 0.0 106.0 88.0
a 75 81 0.0 124.0 69.0
a 75 77 0.0 117.0 30.0
a 75 16 0.0 102.0 89.0
a 75 87 0.0 66.0 61.0
a 75 24 0.0 79.0 81.0
a 75 85 0.0 46.0 43.0
a 75 46 0.0 125.0 33.0
a 75 66 0.0 95.0 55.0
a 82 85 0.0 49.0 89.0
a 82 17 0.0 99.0 89.0
a 82 65 0.0 152.0 30.0
a 82 69 0.0 64.0 92.0
a 82 14 0.0 40.0 56.0
a 82 33 0.0 58.0 47.0
a 82 9 0.0 128.0 92.0
a 82 54 0.0 124.0 18.0
a 82 78 0.0 134.0 72.0
a 82 79 0.0 90.0 30.0
a 82 63 0.0 86.0 71.0
a 82 52 0.0 156.0 38.0
a 85 38 0.0 49.0 66.0
a 85 74 0.0 149.0 32.0
a 85 77 0.0 62.0 59.0
a 7 83 0.0 128.0 65.0
a 7 43 0.0 64.0 89.0
a 7 57 0.0 36.0 31.0
a 7 33 0.0 54.0 91.0
a 7 34 0.0 119.0 4.0
a 7 9 0.0 105.0 74.0
a 7 56 0.0 36.0 6.0
a 7 21 0.0 47.0 48.0
a 7 20 0.0 57.0 68.0
a 7 52 0.0 68.0 37.0
a 7 63 0.0 149.0 50.0
a 7 15 0.0 53.0 15.0
a 7 85 0.0 147.0 21.0
a 7 28 0.0 38.0 61.0
a 7 49 0.0 35.0 92.0
a 7 79 0.0 127.0 38.0
a 9 81 0.0 128.0 11.0
a 9 10 0.0 114.0 25.0
a 9 65 0.0 142.0 59.0
a 9 78 0.0 156.0 67.0
a 9 21 0.0 102.0 42.0
a 9 17 0.0 123.0 95.0
a 9 85 0.0 145.0 62.0
a 9 68 0.0 41.0 19.0
a 9 63 0.0 106.0 60.0
a 9 40 0.0 54.0 4.0
a 9 24 0.0 74.0 35.0
a 9 31 0.0 40.0 10.0
a 9 87 0.0 148.0 92.0
a 9 59 0.0 154.0 34.0
a 19 91 0.0 128.0 93.0
a 19 75 0.0 134.0 44.0
a 19 84 0.0 140.0 75.0
a 19 48 0.0 140.0 22.0
a 19 54 0.0 41.0 26.0
a 19 82 0.0 60.0 80.0
a 19 44 0.0 100.0 83.0
a 26 19 0.0 128.0 55.0
a 26 62 0.0 115.0 49.0
a 26 56 0.0 39.0 83.0
a 26 48 0.0 94.0 66.0
a 26 30 0.0 90.0 93.0
a 26 40 0.0 144.0 93.0
a 26 43 0.0 91.0 31.0
a 28 84 0.0 128.0 70.0
a 28 83 0.0 47.0 33.0
a 28 13 0.0 155.0 81.0
a 28 69 0.0 46.0 27.0
a 40 69 0.0 128.0 7.0
a 40 56 0.0 89.0 4.0
a 40 65 0.0 112.0 75.0
a 40 44 0.0 54.0 65.0
a 40 49 0.0 31.0 79.0
a 40 28 0.0 150.0 53.0
a 40 27 0.0 114.0 77.0
a 40 18 0.0 80.0 90.0
a 40 52 0.0 125.0 89.0
a 40 39 0.0 127.0 66.0
a 40 26 0.0 37.0 83.0
a 40 58 0.0 114.0 5.0
a 40 51 0.0 69.0 31.0
a 40 34 0.0 109.0 93.0
a 40 72 0.0 43.0 28.0
a 40 17 0.0 83.0 88.0
a 40 35 0.0 57.0 78.0
a 40 13 0.0 48.0 67.0
a 63 9 0.0 128.0 36.0
a 63 87 0.0 128.0 32.0
a 63 75 0.0 59.0 3.0
a 63 62 0.0 83.0 7.0
a 63 15 0.0 72.0 40.0
a 63 38 0.0 45.0 56.0
a 63 41 0.0 115.0 66.0
a 63 55 0.0 137.0 40.0
a 63 39 0.0 123.0 95.0
a 63 81 0.0 79.0 39.0
a 63 85 0.0 68.0 14.0
a 63 48 0.0 82.0 72.0
a 63 20 0.0 37.0 21.0
a 63 88 0.0 101.0 24.0
a 63 18 0.0 74.0 49.0
a 63 30 0.0 158.0 59.0
a 63 45 0.0 128.0 95.0
a 69 26 0.0 128.0 31.0
a 69 85 0.0 104.0 61.0
a 69 63 0.0 96.0 10.0
a 69 35 0.0 92.0 90.0
a 69 13 0.0 67.0 78.0
a 81 40 0.0 128.0 30.0
a 81 11 0.0 44.0 95.0
a 83 28 0.0 128.0 61.0
a 83 21 0.0 134.0 92.0
a 83 48 0.0 42.0 33.0
a 83 91 0.0 56.0 2.0
a 83 88 0.0 157.0 11.0
a 83 36 0.0 157.0 79.0
a 83 46 0.0 38.0 5.0
a 83 53 0.0 28.0 81.0
a 83 15 0.0 81.0 54.0
a 83 41 0.0 145.0 57.0
a 83 81 0.0 155.0 88.0
a 83 40 0.0 124.0 18.0
a 83 82 0.0 35.0 49.0
a 83 78 0.0 139.0 7.0
a 83 19 0.0 144.0 88.0
a 83 89 0.0 130.0 60.0
a 83 59 0.0 98.0 53.0
a 83 18 0.0 119.0 92.0
a 84 63 0.0 128.0 52.0
a 84 71 0.0 36.0 12.0
a 84 9 0.0 55.0 59.0
a 84 88 0.0 100.0 7.0
a 84 23 0.0 83.0 80.0
a 84 19 0.0 62.0 45.0
a 84 25 0.0 81.0 87.0
a 84 61 0.0 97.0 6.0
a 84 70 0.0 91.0 7.0
a 84 12 0.0 135.0 10.0
a 84 68 0.0 155.0 92.0
a 84 14 0.0 99.0 53.0
a 84 74 0.0 49.0 73.0
a 84 80 0.0 85.0 38.0
a 84 75 0.0 70.0 63.0
a 84 16 0.0 27.0 38.0
a 84 69 0.0 157.0 89.0
a 8 66 0.0 49.0 5.0
a 8 54 0.0 126.0 10.0
a 8 23 0.0 96.0 7.0
a 8 9 0.0 79.0 5.0
a 8 74 0.0 55.0 3.0
a 8 60 0.0 156.0 6.0
a 8 82 0.0 146.0 88.0
a 8 35 0.0 121.0 88.0
a 8 78 0.0 158.0 30.0
a 8 19 0.0 50.0 92.0
a 15 57 0.0 49.0 12.0
a 15 70 0.0 39.0 53.0
a 15 73 0.0 30.0 53.0
a 15 61 0.0 152.0 43.0
a 15 76 0.0 104.0 56.0
a 15 37 0.0 31.0 70.0
a 15 32 0.0 39.0 90.0
a 15 83 0.0 45.0 41.0
a 15 28 0.0 127.0 89.0
a 15 14 0.0 113.0 84.0
a 15 21 0.0 47.0 28.0
a 15 24 0.0 113.0 68.0
a 15 55 0.0 37.0 31.0
a 17 56 0.0 49.0 94.0
a 17 42 0.0 47.0 30.0
a 17 73 0.0 70.0 42.0
a 17 16 0.0 125.0 67.0
a 17 26 0.0 71.0 57.0
a 17 45 0.0 54.0 63.0
a 17 54 0.0 51.0 74.0
a 17 84 0.0 145.0 64.0
a 17 87 0.0 101.0 66.0
a 17 44 0.0 158.0 62.0
a 23 64 0.0 49.0 92.0
a 23 62 0.0 99.0 92.0
a 23 58 0.0 101.0 47.0
a 23 79 0.0 113.0 19.0
a 23 87 0.0 74.0 67.0
a 23 41 0.0 145.0 75.0
a 23 37 0.0 39.0 87.0
a 23 22 0.0 82.0 78.0
a 23 20 0.0 96.0 53.0
a 23 11 0.0 73.0 93.0
a 23 52 0.0 70.0 87.0
a 23 51 0.0 128.0 41.0
a 23 16 0.0 118.0 41.0
a 30 74 0.0 49.0 18.0
a 30 59 0.0 37.0 77.0
a 30 78 0.0 95.0 9.0
a 30 60 0.0 133.0 80.0
a 30 49 0.0 130.0 86.0
a 30 56 0.0 35.0 75.0
a 30 45 0.0 114.0 23.0
a 30 26 0.0 50.0 46.0
a 30 86 0.0 104.0 20.0
a 30 68 0.0 136.0 43.0
a 30 72 0.0 123.0 19.0
a 30 40 0.0 127.0 62.0
a 48 15 0.0 49.0 78.0
a 48 88 0.0 139.0 66.0
a 48 90 0.0 92.0 47.0
a 48 37 0.0 134.0 92.0
a 48 43 0.0 43.0 39.0
a 48 55 0.0 157.0 27.0
a 48 31 0.0 111.0 79.0
a 48 10 0.0 99.0 25.0
a 48 62 0.0 77.0 92.0
a 52 60 0.0 49.0 77.0
a 52 55 0.0 65.0 68.0
a 52 69 0.0 91.0 57.0
a 56 89 0.0 49.0 67.0
a 56 33 0.0 32.0 62.0
a 56 34 0.0 93.0 12.0
a 56 20 0.0 58.0 52.0
a 56 54 0.0 140.0 84.0
a 56 32 0.0 114.0 87.0
a 56 60 0.0 109.0 73.0
a 57 23 0.0 49.0 81.0
a 57 27 0.0 63.0 71.0
a 57 80 0.0 137.0 20.0
a 57 24 0.0 157.0 28.0
a 57 71 0.0 133.0 9.0
a 57 15 0.0 61.0 75.0
a 57 51 0.0 55.0 94.0
a 57 55 0.0 122.0 33.0
a 60 17 0.0 49.0 42.0
a 60 90 0.0 49.0 77.0
a 60 86 0.0 133.0 66.0
a 60 41 0.0 59.0 63.0
a 64 52 0.0 49.0 61.0
a 64 56 0.0 82.0 85.0
a 64 33 0.0 83.0 78.0
a 64 61 0.0 109.0 7.0
a 64 34 0.0 143.0 93.0
a 64 68 0.0 80.0 48.0
a 64 15 0.0 99.0 49.0
a 64 18 0.0 115.0 16.0
a 64 23 0.0 64.0 27.0
a 64 77 0.0 32.0 39.0
a 64 70 0.0 39.0 50.0
a 64 40 0.0 102.0 77.0
a 64 28 0.0 55.0 36.0
a 64 75 0.0 32.0 52.0
a 64 74 0.0 67.0 45.0
a 64 19 0.0 117.0 9.0
a 66 30 0.0 49.0 14.0
a 66 63 0.0 49.0 26.0
a 66 38 0.0 80.0 28.0
a 66 32 0.0 57.0 86.0
a 66 68 0.0 46.0 8.0
a 66 59 0.0 135.0 23.0
a 74 88 0.0 49.0 75.0
a 74 48 0.0 49.0 18.0
a 74 41 0.0 75.0 83.0
a 74 42 0.0 136.0 26.0
a 74 59 0.0 72.0 42.0
a 74 16 0.0 134.0 28.0
a 74 73 0.0 128.0 64.0
